; PUSH 0x00 ADD MLOAD PUSH cw_2 MLOAD SWAP1 => PUSH cw_2 MLOAD SWAP1 MLOAD
(set-option :produce-proofs true)
; 
(set-info :status unknown)
(declare-fun storage_t ((_ BitVec 256) (_ BitVec 256) (_ BitVec 256) (_ BitVec 256) Int (_ BitVec 256)) (_ BitVec 256))
(declare-fun w_2 () (_ BitVec 256))
(declare-fun storage_s ((_ BitVec 256) (_ BitVec 256) (_ BitVec 256) (_ BitVec 256) Int (_ BitVec 256)) (_ BitVec 256))
(declare-fun exc_halt_t (Int) Bool)
(declare-fun exc_halt_s (Int) Bool)
(declare-fun stack_t ((_ BitVec 256) (_ BitVec 256) (_ BitVec 256) (_ BitVec 256) Int (_ BitVec 6)) (_ BitVec 256))
(declare-fun stack_s ((_ BitVec 256) (_ BitVec 256) (_ BitVec 256) (_ BitVec 256) Int (_ BitVec 6)) (_ BitVec 256))
(declare-fun sc_t (Int) (_ BitVec 6))
(declare-fun sc_s (Int) (_ BitVec 6))
(declare-fun used_gas_t ((_ BitVec 256) (_ BitVec 256) (_ BitVec 256) (_ BitVec 256) Int) Int)
(declare-fun used_gas_s ((_ BitVec 256) (_ BitVec 256) (_ BitVec 256) (_ BitVec 256) Int) Int)
(declare-fun f_MLOAD ((_ BitVec 256) (_ BitVec 256) (_ BitVec 256) (_ BitVec 256) (_ BitVec 256)) (_ BitVec 256))
(assert
 (exists ((x_0 (_ BitVec 256)) (x_MLOAD_0 (_ BitVec 256)) (x_MLOAD_1 (_ BitVec 256)) )(let (($x7721 (forall ((w (_ BitVec 256)) )(let ((?x318 (storage_t x_0 w_2 x_MLOAD_0 x_MLOAD_1 4 w)))
 (let ((?x10017 (storage_s x_0 w_2 x_MLOAD_0 x_MLOAD_1 6 w)))
 (= ?x10017 ?x318))))
 ))
 (let (($x3723 (exc_halt_t 4)))
 (let (($x772 (exc_halt_s 6)))
 (let (($x10342 (= $x772 $x3723)))
 (let (($x10171 (forall ((n (_ BitVec 6)) )(let ((?x7930 (stack_t x_0 w_2 x_MLOAD_0 x_MLOAD_1 4 n)))
 (let ((?x11327 (stack_s x_0 w_2 x_MLOAD_0 x_MLOAD_1 6 n)))
 (let (($x6565 (= ?x11327 ?x7930)))
 (let ((?x1098 (sc_t 4)))
 (let (($x3316 (bvsle ?x1098 n)))
 (or $x3316 $x6565)))))))
 ))
 (let ((?x1098 (sc_t 4)))
 (let ((?x926 (sc_s 6)))
 (let (($x7104 (= ?x926 ?x1098)))
 (let ((?x2792 (used_gas_t x_0 w_2 x_MLOAD_0 x_MLOAD_1 0)))
 (let ((?x4682 (used_gas_s x_0 w_2 x_MLOAD_0 x_MLOAD_1 0)))
 (let (($x2941 (= ?x4682 ?x2792)))
 (let (($x9695 (forall ((w (_ BitVec 256)) )(let ((?x2009 (storage_t x_0 w_2 x_MLOAD_0 x_MLOAD_1 0 w)))
 (let ((?x7219 (storage_s x_0 w_2 x_MLOAD_0 x_MLOAD_1 0 w)))
 (= ?x7219 ?x2009))))
 ))
 (let (($x56 (exc_halt_t 0)))
 (let (($x57 (exc_halt_s 0)))
 (let (($x58 (= $x57 $x56)))
 (let (($x7121 (forall ((n (_ BitVec 6)) )(let ((?x63 (sc_t 0)))
 (let (($x6686 (bvsle ?x63 n)))
 (let ((?x4009 (stack_t x_0 w_2 x_MLOAD_0 x_MLOAD_1 0 n)))
 (let ((?x9064 (stack_s x_0 w_2 x_MLOAD_0 x_MLOAD_1 0 n)))
 (let (($x59 (= ?x9064 ?x4009)))
 (or $x59 $x6686)))))))
 ))
 (let ((?x63 (sc_t 0)))
 (let ((?x72 (sc_s 0)))
 (let (($x73 (= ?x72 ?x63)))
 (let (($x7477 (= $x3723 (or (exc_halt_t 3) (not (bvsle (_ bv0 6) (bvadd (_ bv63 6) (sc_t 3))))))))
 (let (($x9999 (forall ((w (_ BitVec 256)) )(let ((?x8760 (storage_t x_0 w_2 x_MLOAD_0 x_MLOAD_1 3 w)))
 (let ((?x318 (storage_t x_0 w_2 x_MLOAD_0 x_MLOAD_1 4 w)))
 (= ?x318 ?x8760))))
 ))
 (let (($x6435 (forall ((n (_ BitVec 6)) )(let ((?x6438 (sc_t 3)))
 (let ((?x7132 (bvadd (_ bv63 6) ?x6438)))
 (let (($x11524 (bvsle ?x7132 n)))
 (let ((?x3019 (stack_t x_0 w_2 x_MLOAD_0 x_MLOAD_1 3 n)))
 (let ((?x7930 (stack_t x_0 w_2 x_MLOAD_0 x_MLOAD_1 4 n)))
 (or (= ?x7930 ?x3019) $x11524)))))))
 ))
 (let ((?x6438 (sc_t 3)))
 (let (($x8206 (= ?x1098 ?x6438)))
 (let (($x1658 (= (used_gas_t x_0 w_2 x_MLOAD_0 x_MLOAD_1 4) (+ 3 (used_gas_t x_0 w_2 x_MLOAD_0 x_MLOAD_1 3)))))
 (let ((?x7132 (bvadd (_ bv63 6) ?x6438)))
 (let ((?x5928 (stack_t x_0 w_2 x_MLOAD_0 x_MLOAD_1 3 ?x7132)))
 (let (($x4485 (= (stack_t x_0 w_2 x_MLOAD_0 x_MLOAD_1 4 (bvadd (_ bv63 6) ?x1098)) (f_MLOAD x_0 w_2 x_MLOAD_0 x_MLOAD_1 ?x5928))))
 (let (($x6783 (exc_halt_t 3)))
 (let (($x1641 (= $x6783 (or (exc_halt_t 2) (not (bvsle (_ bv0 6) (bvadd (_ bv62 6) (sc_t 2))))))))
 (let (($x10942 (forall ((w (_ BitVec 256)) )(let ((?x280 (storage_t x_0 w_2 x_MLOAD_0 x_MLOAD_1 2 w)))
 (let ((?x8760 (storage_t x_0 w_2 x_MLOAD_0 x_MLOAD_1 3 w)))
 (= ?x8760 ?x280))))
 ))
 (let (($x5669 (forall ((n (_ BitVec 6)) )(let ((?x7398 (stack_t x_0 w_2 x_MLOAD_0 x_MLOAD_1 2 n)))
 (let ((?x3019 (stack_t x_0 w_2 x_MLOAD_0 x_MLOAD_1 3 n)))
 (or (= ?x3019 ?x7398) (bvsle (bvadd (_ bv62 6) (sc_t 2)) n)))))
 ))
 (let ((?x2714 (sc_t 2)))
 (let (($x2407 (= ?x6438 ?x2714)))
 (let ((?x7418 (used_gas_t x_0 w_2 x_MLOAD_0 x_MLOAD_1 3)))
 (let ((?x3527 (bvadd (_ bv63 6) ?x2714)))
 (let ((?x958 (stack_t x_0 w_2 x_MLOAD_0 x_MLOAD_1 2 ?x3527)))
 (let (($x5252 (exc_halt_t 2)))
 (let (($x3956 (= $x5252 (or (exc_halt_t 1) (not (bvsle (_ bv0 6) (bvadd (_ bv63 6) (sc_t 1))))))))
 (let (($x698 (forall ((w (_ BitVec 256)) )(let ((?x1564 (storage_t x_0 w_2 x_MLOAD_0 x_MLOAD_1 1 w)))
 (let ((?x280 (storage_t x_0 w_2 x_MLOAD_0 x_MLOAD_1 2 w)))
 (= ?x280 ?x1564))))
 ))
 (let (($x4027 (forall ((n (_ BitVec 6)) )(let ((?x6780 (stack_t x_0 w_2 x_MLOAD_0 x_MLOAD_1 1 n)))
 (let ((?x7398 (stack_t x_0 w_2 x_MLOAD_0 x_MLOAD_1 2 n)))
 (let ((?x8347 (sc_t 1)))
 (let ((?x1126 (bvadd (_ bv63 6) ?x8347)))
 (let (($x445 (bvsle ?x1126 n)))
 (or $x445 (= ?x7398 ?x6780))))))))
 ))
 (let ((?x7502 (used_gas_t x_0 w_2 x_MLOAD_0 x_MLOAD_1 2)))
 (let ((?x4801 (f_MLOAD x_0 w_2 x_MLOAD_0 x_MLOAD_1 (stack_t x_0 w_2 x_MLOAD_0 x_MLOAD_1 1 (bvadd (_ bv63 6) (sc_t 1))))))
 (let (($x3508 (exc_halt_t 1)))
 (let (($x3632 (= $x3508 (or $x56 (not (= ((_ extract 6 6) (bvadd (_ bv1 7) (concat (_ bv0 1) ?x63))) (_ bv0 1)))))))
 (let (($x3466 (forall ((w (_ BitVec 256)) )(let ((?x2009 (storage_t x_0 w_2 x_MLOAD_0 x_MLOAD_1 0 w)))
 (let ((?x1564 (storage_t x_0 w_2 x_MLOAD_0 x_MLOAD_1 1 w)))
 (= ?x1564 ?x2009))))
 ))
 (let (($x6747 (forall ((n (_ BitVec 6)) )(let ((?x63 (sc_t 0)))
 (let (($x6686 (bvsle ?x63 n)))
 (let ((?x4009 (stack_t x_0 w_2 x_MLOAD_0 x_MLOAD_1 0 n)))
 (let ((?x6780 (stack_t x_0 w_2 x_MLOAD_0 x_MLOAD_1 1 n)))
 (or (= ?x6780 ?x4009) $x6686))))))
 ))
 (let ((?x8347 (sc_t 1)))
 (let (($x7135 (= ?x8347 (bvadd (_ bv1 6) ?x63))))
 (let (($x10480 (= $x772 (or (exc_halt_s 5) (not (bvsle (_ bv0 6) (bvadd (_ bv62 6) (sc_s 5))))))))
 (let (($x2394 (forall ((w (_ BitVec 256)) )(let ((?x498 (storage_s x_0 w_2 x_MLOAD_0 x_MLOAD_1 5 w)))
 (let ((?x10017 (storage_s x_0 w_2 x_MLOAD_0 x_MLOAD_1 6 w)))
 (= ?x10017 ?x498))))
 ))
 (let (($x9202 (forall ((n (_ BitVec 6)) )(let ((?x4319 (sc_s 5)))
 (let ((?x9553 (bvadd (_ bv62 6) ?x4319)))
 (let (($x8637 (bvsle ?x9553 n)))
 (let ((?x4493 (stack_s x_0 w_2 x_MLOAD_0 x_MLOAD_1 5 n)))
 (let ((?x11327 (stack_s x_0 w_2 x_MLOAD_0 x_MLOAD_1 6 n)))
 (or (= ?x11327 ?x4493) $x8637)))))))
 ))
 (let ((?x4319 (sc_s 5)))
 (let (($x2469 (= ?x926 ?x4319)))
 (let (($x9495 (= (used_gas_s x_0 w_2 x_MLOAD_0 x_MLOAD_1 6) (+ 3 (used_gas_s x_0 w_2 x_MLOAD_0 x_MLOAD_1 5)))))
 (let ((?x6091 (bvadd (_ bv63 6) ?x4319)))
 (let ((?x6431 (stack_s x_0 w_2 x_MLOAD_0 x_MLOAD_1 5 ?x6091)))
 (let (($x9342 (= (stack_s x_0 w_2 x_MLOAD_0 x_MLOAD_1 6 (bvadd (_ bv63 6) ?x926)) (stack_s x_0 w_2 x_MLOAD_0 x_MLOAD_1 5 (bvadd (_ bv62 6) ?x4319)))))
 (let (($x11317 (exc_halt_s 5)))
 (let (($x2063 (= $x11317 (or (exc_halt_s 4) (not (bvsle (_ bv0 6) (bvadd (_ bv63 6) (sc_s 4))))))))
 (let (($x8579 (forall ((w (_ BitVec 256)) )(let ((?x6380 (storage_s x_0 w_2 x_MLOAD_0 x_MLOAD_1 4 w)))
 (let ((?x498 (storage_s x_0 w_2 x_MLOAD_0 x_MLOAD_1 5 w)))
 (= ?x498 ?x6380))))
 ))
 (let (($x10867 (forall ((n (_ BitVec 6)) )(let ((?x9661 (stack_s x_0 w_2 x_MLOAD_0 x_MLOAD_1 4 n)))
 (let ((?x4493 (stack_s x_0 w_2 x_MLOAD_0 x_MLOAD_1 5 n)))
 (or (= ?x4493 ?x9661) (bvsle (bvadd (_ bv63 6) (sc_s 4)) n)))))
 ))
 (let ((?x4305 (sc_s 4)))
 (let (($x5774 (= ?x4319 ?x4305)))
 (let ((?x4562 (used_gas_s x_0 w_2 x_MLOAD_0 x_MLOAD_1 5)))
 (let ((?x7301 (f_MLOAD x_0 w_2 x_MLOAD_0 x_MLOAD_1 (stack_s x_0 w_2 x_MLOAD_0 x_MLOAD_1 4 (bvadd (_ bv63 6) ?x4305)))))
 (let (($x5846 (not (= ((_ extract 6 6) (bvadd (_ bv1 7) (concat (_ bv0 1) (sc_s 3)))) (_ bv0 1)))))
 (let (($x292 (exc_halt_s 3)))
 (let (($x7172 (exc_halt_s 4)))
 (let (($x8152 (= $x7172 (or $x292 $x5846))))
 (let (($x2915 (forall ((w (_ BitVec 256)) )(let ((?x5559 (storage_s x_0 w_2 x_MLOAD_0 x_MLOAD_1 3 w)))
 (let ((?x6380 (storage_s x_0 w_2 x_MLOAD_0 x_MLOAD_1 4 w)))
 (= ?x6380 ?x5559))))
 ))
 (let (($x10382 (forall ((n (_ BitVec 6)) )(let ((?x275 (sc_s 3)))
 (let (($x1086 (bvsle ?x275 n)))
 (let ((?x7561 (stack_s x_0 w_2 x_MLOAD_0 x_MLOAD_1 3 n)))
 (let ((?x9661 (stack_s x_0 w_2 x_MLOAD_0 x_MLOAD_1 4 n)))
 (or (= ?x9661 ?x7561) $x1086))))))
 ))
 (let (($x2984 (= ?x4305 (bvadd (_ bv1 6) (sc_s 3)))))
 (let ((?x8318 (used_gas_s x_0 w_2 x_MLOAD_0 x_MLOAD_1 4)))
 (let (($x11399 (= $x292 (or (exc_halt_s 2) (not (bvsle (_ bv0 6) (bvadd (_ bv63 6) (sc_s 2))))))))
 (let (($x6462 (forall ((w (_ BitVec 256)) )(let ((?x4274 (storage_s x_0 w_2 x_MLOAD_0 x_MLOAD_1 2 w)))
 (let ((?x5559 (storage_s x_0 w_2 x_MLOAD_0 x_MLOAD_1 3 w)))
 (= ?x5559 ?x4274))))
 ))
 (let (($x451 (forall ((n (_ BitVec 6)) )(let ((?x10172 (stack_s x_0 w_2 x_MLOAD_0 x_MLOAD_1 2 n)))
 (let ((?x7561 (stack_s x_0 w_2 x_MLOAD_0 x_MLOAD_1 3 n)))
 (or (= ?x7561 ?x10172) (bvsle (bvadd (_ bv63 6) (sc_s 2)) n)))))
 ))
 (let ((?x218 (sc_s 2)))
 (let ((?x275 (sc_s 3)))
 (let (($x8484 (= ?x275 ?x218)))
 (let ((?x7528 (used_gas_s x_0 w_2 x_MLOAD_0 x_MLOAD_1 3)))
 (let ((?x5211 (bvadd (_ bv63 6) ?x218)))
 (let ((?x7641 (stack_s x_0 w_2 x_MLOAD_0 x_MLOAD_1 2 ?x5211)))
 (let (($x11848 (= (stack_s x_0 w_2 x_MLOAD_0 x_MLOAD_1 3 (bvadd (_ bv63 6) ?x275)) (f_MLOAD x_0 w_2 x_MLOAD_0 x_MLOAD_1 ?x7641))))
 (let (($x247 (exc_halt_s 2)))
 (let (($x11245 (= $x247 (or (exc_halt_s 1) (not (bvsle (_ bv0 6) (bvadd (_ bv62 6) (sc_s 1))))))))
 (let (($x5086 (forall ((w (_ BitVec 256)) )(let ((?x484 (storage_s x_0 w_2 x_MLOAD_0 x_MLOAD_1 1 w)))
 (let ((?x4274 (storage_s x_0 w_2 x_MLOAD_0 x_MLOAD_1 2 w)))
 (= ?x4274 ?x484))))
 ))
 (let (($x5019 (forall ((n (_ BitVec 6)) )(let ((?x154 (sc_s 1)))
 (let ((?x4938 (bvadd (_ bv62 6) ?x154)))
 (let (($x10611 (bvsle ?x4938 n)))
 (let ((?x994 (stack_s x_0 w_2 x_MLOAD_0 x_MLOAD_1 1 n)))
 (let ((?x10172 (stack_s x_0 w_2 x_MLOAD_0 x_MLOAD_1 2 n)))
 (or (= ?x10172 ?x994) $x10611)))))))
 ))
 (let ((?x7390 (used_gas_s x_0 w_2 x_MLOAD_0 x_MLOAD_1 2)))
 (let ((?x2355 (bvadd (stack_s x_0 w_2 x_MLOAD_0 x_MLOAD_1 1 (bvadd (_ bv63 6) (sc_s 1))) (stack_s x_0 w_2 x_MLOAD_0 x_MLOAD_1 1 (bvadd (_ bv62 6) (sc_s 1))))))
 (let (($x189 (exc_halt_s 1)))
 (let (($x4791 (= $x189 (or $x57 (not (= ((_ extract 6 6) (bvadd (_ bv1 7) (concat (_ bv0 1) ?x72))) (_ bv0 1)))))))
 (let (($x10888 (forall ((w (_ BitVec 256)) )(let ((?x7219 (storage_s x_0 w_2 x_MLOAD_0 x_MLOAD_1 0 w)))
 (let ((?x484 (storage_s x_0 w_2 x_MLOAD_0 x_MLOAD_1 1 w)))
 (= ?x484 ?x7219))))
 ))
 (let (($x3930 (forall ((n (_ BitVec 6)) )(let ((?x72 (sc_s 0)))
 (let (($x10370 (bvsle ?x72 n)))
 (let ((?x9064 (stack_s x_0 w_2 x_MLOAD_0 x_MLOAD_1 0 n)))
 (let ((?x994 (stack_s x_0 w_2 x_MLOAD_0 x_MLOAD_1 1 n)))
 (or (= ?x994 ?x9064) $x10370))))))
 ))
 (let ((?x154 (sc_s 1)))
 (let (($x5483 (= ?x154 (bvadd (_ bv1 6) ?x72))))
 (let (($x4797 (forall ((w0 (_ BitVec 256)) )(let (($x10474 (= (stack_s x_0 w_2 x_MLOAD_0 x_MLOAD_1 4 (bvadd (_ bv63 6) (sc_s 4))) w0)))
 (let (($x4298 (= (stack_s x_0 w_2 x_MLOAD_0 x_MLOAD_1 2 (bvadd (_ bv63 6) (sc_s 2))) w0)))
 (let ((?x8125 (f_MLOAD x_0 w_2 x_MLOAD_0 x_MLOAD_1 w0)))
 (= ?x8125 (ite $x4298 x_MLOAD_0 (ite $x10474 x_MLOAD_1 (_ bv0 256))))))))
 ))
 (let (($x9221 (forall ((w (_ BitVec 256)) )(let ((?x7219 (storage_s x_0 w_2 x_MLOAD_0 x_MLOAD_1 0 w)))
 (= ?x7219 (_ bv0 256))))
 ))
 (let (($x4823 (= ?x4682 0)))
 (let (($x11124 (not $x57)))
 (let (($x6348 (= (stack_s x_0 w_2 x_MLOAD_0 x_MLOAD_1 0 (_ bv0 6)) x_0)))
 (let (($x8685 (= ?x72 (_ bv1 6))))
 (and $x8685 $x6348 $x11124 $x4823 $x9221 $x4797 (= (stack_s x_0 w_2 x_MLOAD_0 x_MLOAD_1 1 ?x72) (_ bv0 256)) (= (used_gas_s x_0 w_2 x_MLOAD_0 x_MLOAD_1 1) (+ 3 ?x4682)) $x5483 $x3930 $x10888 $x4791 (= ?x7641 ?x2355) (= ?x7390 (+ 3 (used_gas_s x_0 w_2 x_MLOAD_0 x_MLOAD_1 1))) (= ?x218 (bvadd (_ bv63 6) ?x154)) $x5019 $x5086 $x11245 $x11848 (= ?x7528 (+ 3 ?x7390)) $x8484 $x451 $x6462 $x11399 (= (stack_s x_0 w_2 x_MLOAD_0 x_MLOAD_1 4 ?x275) w_2) (= ?x8318 (+ 3 ?x7528)) $x2984 $x10382 $x2915 $x8152 (= ?x6431 ?x7301) (= ?x4562 (+ 3 ?x8318)) $x5774 $x10867 $x8579 $x2063 $x9342 (= (stack_s x_0 w_2 x_MLOAD_0 x_MLOAD_1 6 (bvadd (_ bv62 6) ?x926)) ?x6431) $x9495 $x2469 $x9202 $x2394 $x10480 (= (stack_t x_0 w_2 x_MLOAD_0 x_MLOAD_1 1 ?x63) w_2) (= (used_gas_t x_0 w_2 x_MLOAD_0 x_MLOAD_1 1) (+ 3 ?x2792)) $x7135 $x6747 $x3466 $x3632 (= ?x958 ?x4801) (= ?x7502 (+ 3 (used_gas_t x_0 w_2 x_MLOAD_0 x_MLOAD_1 1))) (= ?x2714 ?x8347) $x4027 $x698 $x3956 (= ?x5928 (stack_t x_0 w_2 x_MLOAD_0 x_MLOAD_1 2 (bvadd (_ bv62 6) ?x2714))) (= (stack_t x_0 w_2 x_MLOAD_0 x_MLOAD_1 3 (bvadd (_ bv62 6) ?x6438)) ?x958) (= ?x7418 (+ 3 ?x7502)) $x2407 $x5669 $x10942 $x1641 $x4485 $x1658 $x8206 $x6435 $x9999 $x7477 $x73 $x7121 $x58 $x9695 $x2941 (not (and $x7104 $x10171 $x10342 $x7721))))))))))))))))))))))))))))))))))))))))))))))))))))))))))))))))))))))))))))))))))))))))))))))))))))))))))
 )
(check-sat)
(get-proof)
